p cnf 38 106
a 32 26 0
e 1 2 3 4 5 6 7 8 9 10 11 12 13 14 15 16 17 18 19 20 21 22 23 24 25 27 28 29 30 31 33 34 35 36 37 38 0
-3 1 0
-3 -2 0
-1 2 3 0
-5 -4 0
-5 -1 0
4 1 5 0
-5 4 -6 0
5 -4 -6 0
-5 -4 6 0
5 4 6 0
-8 6 0
-8 7 0
-6 -7 8 0
-9 3 0
-9 8 0
-3 -8 9 0
12 -10 0
12 -11 0
10 11 -12 0
13 -7 0
13 -12 0
7 12 -13 0
-14 13 0
-14 -11 0
-13 11 14 0
15 9 0
15 14 0
-9 -14 -15 0
17 -10 0
17 -16 0
10 16 -17 0
-7 9 -18 0
7 -9 -18 0
-7 -9 18 0
7 9 18 0
-17 18 -19 0
17 -18 -19 0
-17 -18 19 0
17 18 19 0
-20 -15 0
-20 -19 0
15 19 20 0
-8 -12 -21 0
8 12 -21 0
-8 12 21 0
8 -12 21 0
-22 21 0
-22 21 0
-21 22 0
4 5 -23 0
-4 -5 -23 0
4 -5 23 0
-4 5 23 0
25 8 0
25 -11 0
-8 11 -25 0
24 -25 -26 0
-24 25 -26 0
24 25 26 0
-24 -25 26 0
23 26 -27 0
-23 -26 -27 0
23 -26 27 0
-23 26 27 0
-16 1 -28 0
16 -1 -28 0
-16 -1 28 0
16 1 28 0
27 -28 -29 0
-27 28 -29 0
27 28 29 0
-27 -28 29 0
31 1 0
31 8 0
-1 -8 -31 0
-32 30 0
-32 -31 0
-30 31 32 0
34 -24 0
34 -33 0
24 33 -34 0
35 32 0
35 34 0
-32 -34 -35 0
-29 -35 -36 0
29 35 -36 0
-29 35 36 0
29 -35 36 0
37 -22 0
37 -36 0
22 36 -37 0
-20 37 -38 0
20 -37 -38 0
-20 -37 38 0
20 37 38 0
-12 17 -13 9 0
14 -35 28 21 -29 0
-1 14 3 -5 2 35 4 0
-18 30 -4 0
24 37 7 -16 -23 -18 0
-10 -25 33 5 0
-8 -33 17 -25 -28 0
-4 26 36 18 -32 0
-11 22 -27 -34 -9 0
26 38 2 -24 -23 0
38 0
